SCIP version 5.0.0 [precision: 8 byte] [memory: block] [mode: optimized] [LP solver: NONE] [GitHash: 3bbd232]
Copyright (C) 2002-2017 Konrad-Zuse-Zentrum fuer Informationstechnik Berlin (ZIB)

External codes: 
  Readline EditLine w  GNU library for command line editing (gnu.org/s/readline)
  CppAD 20160000.1     Algorithmic Differentiation of C++ algorithms developed by B. Bell (www.coin-or.org/CppAD)
  ZLIB 1.2.5           General purpose compression library by J. Gailly and M. Adler (zlib.net)
  GMP 6.1.2            GNU Multiple Precision Arithmetic Library developed by T. Granlund (gmplib.org)

user parameter file <scip.set> not found - using default parameters

read problem <../../Split_data/output/parkin/4/0_sample_parkin.logreg>
============

File name	:	../../Split_data/output/parkin/4/0_sample_parkin.logreg
Problem name 	:	0_sample_parkin
Number of data	:	156
Number of var	:	22
The given data has linear independence

[dim=1] time: 0.045607
[dim=2] time: 0.175845
[dim=3] time: 0.289813
[dim=4] time: 0.436103
[dim=5] time: 0.595343
[dim=6] time: 0.734809
[dim=7] time: 0.925956
[dim=8] time: 1.24563
[dim=9] time: 1.69454
[dim=10] Time of forward = 1.91904sec.
AIC: 96.9609
k: 9

[dim=22] time: 4.67324
[dim=21] time: 7.09502
[dim=20] time: 13.8019
[dim=19] time: 16.233
[dim=18] time: 19.2059
[dim=17] time: 19.7791
[dim=16] time: 22.7804
[dim=15] time: 24.3297
[dim=14] time: 25.8366
[dim=13] time: 26.2752
[dim=12] time: 27.4023
[dim=11] time: 28.9196
[dim=10] time: 30.0705
[dim=9] Time of backward = 30.072sec.
AIC: 93.6676
k: 10
